26 20
27 20
27 22
29 20
61 22
62 22
63 22
65 22
65 24
67 24
65 24
65 24
65 25
64 27
65 27
65 27
65 27
66 27
69 26
71 26
78 20
79 20
90 22
90 22
90 23
91 23
96 23
95 23
99 24
98 24
98 24
98 26
98 26
98 26
79 22
90 25
79 22
91 27
92 27
92 27
92 28
75 21
71 26
73 26
75 26
75 26
75 28
75 28
75 29
73 26
69 27
68 27
68 27
68 28
68 28
68 29
67 29
67 29
68 28
65 26
63 27
64 28
63 29
60 25
61 26
60 26
63 26
61 26
68 24
67 23
68 23
67 24
67 24
68 22
69 21
68 21
68 21
66 23
68 24
68 24
68 25
61 23
60 21
60 21
60 22
60 22
62 24
26 20
26 20
26 20
26 20
26 20
26 20
26 22
26 23
25 23
25 26
22 26
